n = 28;
lu = [|-629, 338
      |-76, 441
      |-193, 456
      |-607, 261
      |-80, 20
      |-746, 66
      |-718, -572
      |126, 551
      |-324, -69
      |-609, 235
      |-110, 460
      |75, 326
      |-376, 711
      |-435, 131
      |-335, 104
      |51, 596
      |368, 616
      |-382, 288
      |329, 596
      |-173, 81
      |-215, 264
      |-334, 752
      |57, 183
      |-490, 272
      |-156, 756
      |-172, 765
      |418, 665
      |181, 537|];
